20 10
10 12 65 27 48 59 13 8 93 73
86 44 40 9 98 17 37 94 60 44
77 2 72 67 31 11 67 30 31 99
3 53 54 51 20 4 94 25 42 36
33 8 67 68 25 64 59 85 41 20
70 40 61 27 76 55 50 69 14 74
7 97 61 14 42 92 68 62 41 91
39 72 72 74 3 86 63 68 52 66
27 30 53 55 66 98 3 98 29 78
49 49 35 19 60 19 81 31 46 70
45 87 94 34 72 21 30 98 56 82
83 86 52 53 36 60 36 8 63 79
92 20 10 6 48 9 62 15 59 98
71 3 83 38 52 33 30 71 86 41
6 16 60 9 30 33 78 50 26 9
54 37 17 86 69 47 4 62 45 68
30 40 97 62 45 88 30 90 13 55
48 27 95 33 89 97 51 25 14 80
88 13 61 15 43 25 43 14 82 17
18 25 83 68 3 83 17 79 72 34
